Version identifier: 20.1.0.0 | 2020-11-10 | 9bedb6d68
Tried aggregator 2 times.
MIP Presolve eliminated 1915 rows and 1010 columns.
MIP Presolve modified 4758 coefficients.
Aggregator did 205 substitutions.
Reduced MIP has 2899 rows, 2310 columns, and 9578 nonzeros.
Reduced MIP has 506 binaries, 1804 generals, 0 SOSs, and 0 indicators.
Presolve time = 0.03 sec. (11.10 ticks)
Probing fixed 60 vars, tightened 476 bounds.
Probing time = 0.00 sec. (2.21 ticks)
Tried aggregator 2 times.
Detecting symmetries...
MIP Presolve eliminated 1234 rows and 68 columns.
MIP Presolve modified 229 coefficients.
Aggregator did 6 substitutions.
Reduced MIP has 1659 rows, 2236 columns, and 5554 nonzeros.
Reduced MIP has 598 binaries, 1638 generals, 0 SOSs, and 0 indicators.
Presolve time = 0.02 sec. (7.68 ticks)
Probing time = 0.00 sec. (0.54 ticks)
Clique table members: 185.
MIP emphasis: balance optimality and feasibility.
MIP search method: dynamic search.
Parallel mode: deterministic, using up to 24 threads.
Root relaxation solution time = 0.03 sec. (6.59 ticks)

        Nodes                                         Cuts/
   Node  Left     Objective  IInf  Best Integer    Best Bound    ItCnt     Gap

      0     0        0.0000    70                      0.0000      594         
*     0+    0                           40.0000        0.0000           100.00%
      0     0       -0.0000    60       40.0000     Cuts: 150      718   72.50%
      0     0        0.0000    64       40.0000     Cuts: 196     1409   72.50%
      0     0        0.5000    57       40.0000     Cuts: 163     1856   72.50%
*     0+    0                           29.0000       11.0000            62.07%
      0     0        0.6667   177       29.0000      Cuts: 99     2014   62.07%
*     0+    0                           28.0000       11.0000            60.71%
      0     2        0.6667   107       28.0000       11.0000     2014   60.71%
Elapsed time = 1.33 sec. (302.98 ticks, tree = 0.02 MB, solutions = 3)
*  1191+  494                           24.0000       11.0000            54.17%
   1511   272        cutoff             24.0000       11.0000    84305   54.17%
*  1525+  224                           23.0000       11.0000            52.17%
*  1600+  220                           21.0000       11.0000            47.62%

Cover cuts applied:  8
Implied bound cuts applied:  231
Flow cuts applied:  2
Mixed integer rounding cuts applied:  27
Zero-half cuts applied:  145
Lift and project cuts applied:  19
Gomory fractional cuts applied:  24

Root node processing (before b&c):
  Real time             =    1.30 sec. (302.32 ticks)
Parallel b&c, 24 threads:
  Real time             =    1.20 sec. (310.56 ticks)
  Sync time (average)   =    0.56 sec.
  Wait time (average)   =    0.00 sec.
                          ------------
Total (root+branch&cut) =    2.49 sec. (612.88 ticks)

Solution status = Optimal
Solution LB = 21
Solution UB = 21
Runtime = 2.49928 seconds
	Command being timed: "/home/min/git_repos/CS598MEBProject/CNT-ILP/build/cnt -s 2 ./output/k8_n30/simC_c1_k8_n30_u3_s1_del02.input-left.cnp"
	User time (seconds): 37.46
	System time (seconds): 0.34
	Percent of CPU this job got: 1476%
	Elapsed (wall clock) time (h:mm:ss or m:ss): 0:02.56
	Average shared text size (kbytes): 0
	Average unshared data size (kbytes): 0
	Average stack size (kbytes): 0
	Average total size (kbytes): 0
	Maximum resident set size (kbytes): 194052
	Average resident set size (kbytes): 0
	Major (requiring I/O) page faults: 1
	Minor (reclaiming a frame) page faults: 72105
	Voluntary context switches: 9321
	Involuntary context switches: 5440
	Swaps: 0
	File system inputs: 8
	File system outputs: 16
	Socket messages sent: 0
	Socket messages received: 0
	Signals delivered: 0
	Page size (bytes): 4096
	Exit status: 0
